
<<< setup


<<< generate

Version identifier: 12.10.0.0 | 2019-11-26 | 843d4de2ae
CPXPARAM_TimeLimit                               1200
Tried aggregator 3 times.
MIP Presolve eliminated 5145778 rows and 2914436 columns.
MIP Presolve modified 462140 coefficients.
Aggregator did 863 substitutions.
Reduced MIP has 96409 rows, 96251 columns, and 614707 nonzeros.
Reduced MIP has 96201 binaries, 0 generals, 0 SOSs, and 0 indicators.
Presolve time = 7.36 sec. (4678.08 ticks)
Found incumbent of value 13863.000000 after 11.06 sec. (5940.60 ticks)
Probing fixed 2413 vars, tightened 0 bounds.
Probing time = 40.67 sec. (7849.52 ticks)
Tried aggregator 2 times.
Detecting symmetries...
MIP Presolve eliminated 2413 rows and 2413 columns.
Aggregator did 1 substitutions.
Reduced MIP has 93995 rows, 93837 columns, and 598536 nonzeros.
Reduced MIP has 93787 binaries, 0 generals, 0 SOSs, and 0 indicators.
Presolve time = 0.70 sec. (399.67 ticks)
Probing fixed 23 vars, tightened 0 bounds.
Probing time = 2.50 sec. (510.16 ticks)
Clique table members: 332493.
MIP emphasis: balance optimality and feasibility.
MIP search method: dynamic search.
Parallel mode: deterministic, using up to 4 threads.
Root relaxation solution time = 5.25 sec. (3280.37 ticks)

        Nodes                                         Cuts/
   Node  Left     Objective  IInf  Best Integer    Best Bound    ItCnt     Gap

*     0+    0                        13863.0000   120310.0000           767.85%
      0     0    64877.0000   614    13863.0000    64877.0000     9627  367.99%
*     0+    0                        20668.0000    64877.0000           213.90%
      0     0    64877.0000   614    20668.0000       Cuts: 7    20256  213.90%
      0     0    64877.0000   614    20668.0000    Cuts: 4629    39597  213.90%
      0     0    64877.0000   614    20668.0000       Cuts: 6    40074  213.90%
*     0+    0                        23896.0000    64877.0000           171.50%
      0     0    64877.0000   614    23896.0000    Cuts: 7679    48003  171.50%
Heuristic still looking.
Detecting symmetries...
      0     2    64877.0000   182    23896.0000    64877.0000    48003  171.50%
Elapsed time = 366.42 sec. (180456.61 ticks, tree = 0.02 MB, solutions = 3)
      1     3    64877.0000   288    23896.0000    64877.0000    72151  171.50%
      2     3    64877.0000   163    23896.0000    64877.0000    48057  171.50%
      3     5    64877.0000   390    23896.0000    64877.0000    78359  171.50%
      4     4    64877.0000   272    23896.0000    64877.0000    82934  171.50%
      5     6    64877.0000   511    23896.0000    64877.0000    91552  171.50%
      6     8    64877.0000   455    23896.0000    64877.0000   106330  171.50%
      7     9    64877.0000   444    23896.0000    64877.0000   110737  171.50%
      8    10    64877.0000   441    23896.0000    64877.0000   112091  171.50%
     10    11    64877.0000   414    23896.0000    64877.0000   112617  171.50%
     12     7    64877.0000   344    23896.0000    64877.0000   106651  171.50%
Elapsed time = 485.69 sec. (230360.42 ticks, tree = 0.06 MB, solutions = 3)
     14    12    64877.0000   399    23896.0000    64877.0000   114009  171.50%
     17    11    64877.0000   430    23896.0000    64877.0000   148587  171.50%
     18    11    64877.0000   568    23896.0000    64877.0000   129522  171.50%
     19    12    64877.0000   446    23896.0000    64877.0000   152820  171.50%
     21    13    64877.0000   407    23896.0000    64877.0000   154217  171.50%
     22    12    64877.0000   346    23896.0000    64877.0000   132248  171.50%
     23    13    64877.0000   341    23896.0000    64877.0000   132250  171.50%
     24    12    64877.0000   442    23896.0000    64877.0000   155491  171.50%
     26    14    64877.0000   413    23896.0000    64877.0000   155626  171.50%
     28    16    64877.0000   406    23896.0000    64877.0000   166783  171.50%
Elapsed time = 537.91 sec. (246366.61 ticks, tree = 1.82 MB, solutions = 3)
     30    14    64877.0000   454    23896.0000    64877.0000   157317  171.50%
     32    29    64877.0000   379    23896.0000    64877.0000   253517  171.50%
     35    22    64877.0000   330    23896.0000    64877.0000   208807  171.50%
     38    24    64877.0000   355    23896.0000    64877.0000   212538  171.50%
     41    25    64877.0000   325    23896.0000    64877.0000   214022  171.50%
     43    35    64877.0000   352    23896.0000    64877.0000   264710  171.50%
     45    36    64877.0000   341    23896.0000    64877.0000   265688  171.50%
     47    43    64877.0000   353    23896.0000    64877.0000   287941  171.50%
     49    44    64877.0000   331    23896.0000    64877.0000   290107  171.50%
     52    46    64877.0000   309    23896.0000    64877.0000   294288  171.50%
Elapsed time = 577.83 sec. (259493.00 ticks, tree = 2.09 MB, solutions = 3)
     56    48    64877.0000   294    23896.0000    64877.0000   298425  171.50%
     57    39    64877.0000   364    23896.0000    64877.0000   286586  171.50%
     59    50    64877.0000   309    23896.0000    64877.0000   303264  171.50%
     61    46    64877.0000   359    23896.0000    64877.0000   310357  171.50%
     62    18    64877.0000   377    23896.0000    64877.0000   208353  171.50%
     63    51    64877.0000   379    23896.0000    64877.0000   305590  171.50%
     66    54    64877.0000   301    23896.0000    64877.0000   402559  171.50%
     67    48    64877.0000   322    23896.0000    64877.0000   317183  171.50%
     68    55    64877.0000   299    23896.0000    64877.0000   406413  171.50%
     70    56    64877.0000   304    23896.0000    64877.0000   408046  171.50%
Elapsed time = 627.28 sec. (276739.91 ticks, tree = 3.37 MB, solutions = 3)
     71    67    64877.0000   327    23896.0000    64877.0000   433161  171.50%
     76    73    64877.0000   309    23896.0000    64877.0000   450774  171.50%
     80    70    infeasible          23896.0000    64877.0000   439120  171.50%
     81    70    64877.0000   358    23896.0000    64877.0000   441247  171.50%
     86    74    64877.0000   439    23896.0000    64877.0000   468647  171.50%
     89    73    64877.0000   268    23896.0000    64877.0000   441909  171.50%
     95    77    64877.0000   341    23896.0000    64877.0000   458018  171.50%
     98    76    64877.0000   250    23896.0000    64877.0000   444924  171.50%
    102    83    64877.0000   280    23896.0000    64877.0000   485868  171.50%
    107    84    64877.0000   250    23896.0000    64877.0000   487208  171.50%
Elapsed time = 659.36 sec. (288860.97 ticks, tree = 3.67 MB, solutions = 3)
    111    79    64877.0000   304    23896.0000    64877.0000   472665  171.50%
    114    88    64877.0000   317    23896.0000    64877.0000   496841  171.50%
    120    97    64877.0000   220    23896.0000    64877.0000   504018  171.50%
    130    90    64877.0000   324    23896.0000    64877.0000   499528  171.50%
    139    91    64877.0000   189    23896.0000    64877.0000   496092  171.50%
    152    89    infeasible          23896.0000    64877.0000   500094  171.50%
    157   108    64877.0000   299    23896.0000    64877.0000   513318  171.50%
    160    90    64877.0000   224    23896.0000    64877.0000   500426  171.50%
    165   113    64877.0000   288    23896.0000    64877.0000   528050  171.50%
    168   115    64877.0000   276    23896.0000    64877.0000   529266  171.50%
Elapsed time = 688.78 sec. (299927.41 ticks, tree = 6.04 MB, solutions = 3)
    179   126    64877.0000   214    23896.0000    64877.0000   544353  171.50%
    186   120    64877.0000   230    23896.0000    64877.0000   531468  171.50%
    189   142    64877.0000   325    23896.0000    64877.0000   568484  171.50%
    195   121    64877.0000   246    23896.0000    64877.0000   534748  171.50%
    204   144    64877.0000   314    23896.0000    64877.0000   570598  171.50%
    211   120    infeasible          23896.0000    64877.0000   537772  171.50%
    214   131    64877.0000   374    23896.0000    64877.0000   565831  171.50%
    217   150    64877.0000   211    23896.0000    64877.0000   580837  171.50%
    229   150    64877.0000   208    23896.0000    64877.0000   582786  171.50%
    234   132    64877.0000   353    23896.0000    64877.0000   567819  171.50%
Elapsed time = 723.39 sec. (312511.54 ticks, tree = 7.37 MB, solutions = 3)
    237   151    64877.0000   200    23896.0000    64877.0000   585176  171.50%
    239   143    64877.0000   275    23896.0000    64877.0000   572624  171.50%
    242   150    infeasible          23896.0000    64877.0000   587703  171.50%
    245   151    64877.0000   185    23896.0000    64877.0000   589406  171.50%
    250   149    infeasible          23896.0000    64877.0000   590319  171.50%
    253   150    64877.0000   213    23896.0000    64877.0000   590459  171.50%
    261   158    64877.0000   201    23896.0000    64877.0000   605136  171.50%
    265   159    64877.0000   207    23896.0000    64877.0000   605802  171.50%
    270   160    64877.0000   212    23896.0000    64877.0000   607963  171.50%
    280   165    infeasible          23896.0000    64877.0000   627271  171.50%
Elapsed time = 793.13 sec. (324833.16 ticks, tree = 10.21 MB, solutions = 3)
    283   168    infeasible          23896.0000    64877.0000   639601  171.50%
    287   163    infeasible          23896.0000    64877.0000   629994  171.50%
    289   162    64877.0000   286    23896.0000    64877.0000   623740  171.50%
    290   165    64877.0000   371    23896.0000    64877.0000   622051  171.50%
    293   164    infeasible          23896.0000    64877.0000   670850  171.50%
    295   157    infeasible          23896.0000    64877.0000   675888  171.50%
    297   166    infeasible          23896.0000    64877.0000   652807  171.50%
    298   163    infeasible          23896.0000    64877.0000   675599  171.50%
    300   164    infeasible          23896.0000    64877.0000   656235  171.50%
    301   153    infeasible          23896.0000    64877.0000   681781  171.50%
Elapsed time = 934.58 sec. (351841.75 ticks, tree = 6.68 MB, solutions = 3)
    303   162    infeasible          23896.0000    64877.0000   678190  171.50%
    305   149    infeasible          23896.0000    64877.0000   694121  171.50%
    306   152    infeasible          23896.0000    64877.0000   683118  171.50%
    307   172    64877.0000   378    23896.0000    64877.0000   673078  171.50%
    309   147    infeasible          23896.0000    64877.0000   696495  171.50%
    310   152    infeasible          23896.0000    64877.0000   701806  171.50%
    311   148    infeasible          23896.0000    64877.0000   707005  171.50%
    312   153    64877.0000   371    23896.0000    64877.0000   705045  171.50%
    316   149    64877.0000   289    23896.0000    64877.0000   723834  171.50%
    320   152    64877.0000   288    23896.0000    64877.0000   727720  171.50%
Elapsed time = 1156.95 sec. (391140.74 ticks, tree = 7.32 MB, solutions = 3)
    329   157    64877.0000   327    23896.0000    64877.0000   679543  171.50%
    338   152    64877.0000   195    23896.0000    64877.0000   740560  171.50%
    350   165    64877.0000   276    23896.0000    64877.0000   759897  171.50%
    356   168    64877.0000   249    23896.0000    64877.0000   762201  171.50%

Implied bound cuts applied:  266
Flow cuts applied:  11
Mixed integer rounding cuts applied:  3
Gomory fractional cuts applied:  1

Root node processing (before b&c):
  Real time             =  358.77 sec. (178002.31 ticks)
Parallel b&c, 4 threads:
  Real time             =  841.95 sec. (230507.34 ticks)
  Sync time (average)   =  142.57 sec.
  Wait time (average)   =    0.00 sec.
                          ------------
Total (root+branch&cut) = 1200.72 sec. (408509.65 ticks)

<<< solve


OBJECTIVE: 23896

<<< post process


<<< done

